job_count = 25 ;
duration = [|24, 12, 14, 13, 4|5, 21, 15, 4, 10|3, 11, 17, 13, 10|4, 17, 4, 11, 12|2, 2, 7, 13, 9|10, 16, 18, 12, 7|14, 4, 18, 5, 9|3, 21, 18, 17, 6|7, 7, 18, 11, 7|21, 5, 5, 6, 2|13, 15, 12, 6, 4|12, 9, 8, 2, 9|20, 12, 14, 15, 11|7, 2, 19, 7, 6|21, 8, 10, 17, 4|8, 21, 16, 7, 11|7, 6, 19, 5, 5|17, 3, 8, 11, 14|21, 2, 18, 8, 14|2, 11, 15, 8, 14|6, 14, 14, 15, 5|8, 16, 8, 15, 6|14, 21, 2, 10, 6|11, 4, 4, 16, 2|8, 15, 4, 17, 3|] ;
machine_count = 5 ;
cost = [|16, 34, 22, 23, 32|27, 24, 26, 43, 33|19, 30, 39, 34, 28|24, 25, 23, 33, 43|17, 27, 38, 43, 31|19, 29, 28, 29, 33|30, 18, 27, 39, 36|24, 30, 30, 25, 35|18, 33, 39, 36, 48|23, 26, 32, 24, 51|26, 27, 32, 26, 38|25, 32, 26, 41, 46|19, 33, 22, 28, 44|23, 32, 29, 45, 43|21, 32, 26, 42, 31|21, 28, 36, 24, 41|21, 29, 27, 26, 28|19, 25, 26, 43, 50|27, 29, 38, 25, 29|18, 29, 38, 29, 47|30, 33, 21, 35, 47|28, 26, 28, 34, 34|24, 22, 34, 43, 53|24, 24, 34, 26, 43|16, 21, 22, 27, 53|] ;
deadline = [33, 33, 33, 33, 33, 33, 33, 33, 33, 33, 33, 33, 33, 33, 33, 33, 33, 33, 33, 33, 33, 33, 33, 33, 33] ;
release = [0, 0, 0, 0, 0, 0, 0, 0, 0, 0, 0, 0, 0, 0, 0, 0, 0, 0, 0, 0, 0, 0, 0, 0, 0] ;
resource = [|3, 3, 3, 3, 3|1, 1, 1, 1, 1|4, 4, 4, 4, 4|4, 4, 4, 4, 4|4, 4, 4, 4, 4|8, 8, 8, 8, 8|3, 3, 3, 3, 3|8, 8, 8, 8, 8|8, 8, 8, 8, 8|4, 4, 4, 4, 4|8, 8, 8, 8, 8|4, 4, 4, 4, 4|6, 6, 6, 6, 6|7, 7, 7, 7, 7|9, 9, 9, 9, 9|1, 1, 1, 1, 1|2, 2, 2, 2, 2|1, 1, 1, 1, 1|5, 5, 5, 5, 5|8, 8, 8, 8, 8|1, 1, 1, 1, 1|8, 8, 8, 8, 8|5, 5, 5, 5, 5|5, 5, 5, 5, 5|5, 5, 5, 5, 5|] ;
capacities = [10, 10, 10, 10, 10] ;
